p cnf 122 80
-1 42 84 -2 85 -87 -88 -89 -93 -94 -95 -96 -97 -98 -99 -100 -101 -102 -103 -104 -105 -106 -107 -108 -109 -110 -111 -112 -114 -115 -116 -117 -118 -119 -120 -121 -122 0 
-3 86 -87 -88 -89 -93 -94 -95 -96 -97 -98 -99 -100 -101 -102 -103 -104 -105 -106 -107 -108 -109 -110 -111 -112 -114 -115 -116 -117 -118 -119 -120 -121 -122 0 
-4 23 52 87 -88 -89 -93 -94 -95 -96 -97 -98 -99 -100 -101 -102 -103 -104 -105 -106 -107 -108 -109 -110 -111 -112 -114 -115 -116 -117 -118 -119 -120 -121 -122 0 
-5 27 -6 -7 -8 88 -87 -89 -93 -94 -95 -96 -97 -98 -99 -100 -101 -102 -103 -104 -105 -106 -107 -108 -109 -110 -111 -112 -114 -115 -116 -117 -118 -119 -120 -121 -122 0 
-8 89 -87 -88 -93 -94 -95 -96 -97 -98 -99 -100 -101 -102 -103 -104 -105 -106 -107 -108 -109 -110 -111 -112 -114 -115 -116 -117 -118 -119 -120 -121 -122 0 
-8 90 -113 0 
-9 91 -87 -88 -89 -93 -94 -95 -96 -97 -98 -99 -100 -101 -102 -103 -104 -105 -106 -107 -108 -109 -110 -111 -112 -114 -115 -116 -117 -118 -119 -120 -121 -122 0 
-10 78 80 86 -87 -88 -89 -93 -94 -95 -96 -97 -98 -99 -100 -101 -102 -103 -104 -105 -106 -107 -108 -109 -110 -111 -112 -114 -115 -116 -117 -118 -119 -120 -121 -122 0 
-11 74 92 -18 -21 -32 -37 -46 -64 -66 -68 -87 -88 -89 -93 -94 -95 -96 -97 -98 -99 -100 -101 -102 -103 -104 -105 -106 -107 -108 -109 -110 -111 -112 -114 -115 -116 -117 -118 -119 -120 -121 -122 0 
-12 91 -87 -88 -89 -93 -94 -95 -96 -97 -98 -99 -100 -101 -102 -103 -104 -105 -106 -107 -108 -109 -110 -111 -112 -114 -115 -116 -117 -118 -119 -120 -121 -122 0 
-13 85 -87 -88 -89 -93 -94 -95 -96 -97 -98 -99 -100 -101 -102 -103 -104 -105 -106 -107 -108 -109 -110 -111 -112 -114 -115 -116 -117 -118 -119 -120 -121 -122 0 
-14 63 79 81 82 92 -18 -21 -32 -37 -46 -64 -66 -68 -87 -88 -89 -93 -94 -95 -96 -97 -98 -99 -100 -101 -102 -103 -104 -105 -106 -107 -108 -109 -110 -111 -112 -114 -115 -116 -117 -118 -119 -120 -121 -122 0 
-15 86 -87 -88 -89 -93 -94 -95 -96 -97 -98 -99 -100 -101 -102 -103 -104 -105 -106 -107 -108 -109 -110 -111 -112 -114 -115 -116 -117 -118 -119 -120 -121 -122 0 
-16 25 58 85 -87 -88 -89 -93 -94 -95 -96 -97 -98 -99 -100 -101 -102 -103 -104 -105 -106 -107 -108 -109 -110 -111 -112 -114 -115 -116 -117 -118 -119 -120 -121 -122 0 
-17 24 34 50 83 93 -87 -88 -89 -94 -95 -96 -97 -98 -99 -100 -101 -102 -103 -104 -105 -106 -107 -108 -109 -110 -111 -112 -114 -115 -116 -117 -118 -119 -120 -121 -122 0 
-18 21 32 37 46 64 66 68 94 -87 -88 -89 -93 -95 -96 -97 -98 -99 -100 -101 -102 -103 -104 -105 -106 -107 -108 -109 -110 -111 -112 -114 -115 -116 -117 -118 -119 -120 -121 -122 0 
-19 85 -87 -88 -89 -93 -94 -95 -96 -97 -98 -99 -100 -101 -102 -103 -104 -105 -106 -107 -108 -109 -110 -111 -112 -114 -115 -116 -117 -118 -119 -120 -121 -122 0 
-20 26 31 36 45 -21 18 32 37 46 64 66 68 95 -87 -88 -89 -93 -94 -96 -97 -98 -99 -100 -101 -102 -103 -104 -105 -106 -107 -108 -109 -110 -111 -112 -114 -115 -116 -117 -118 -119 -120 -121 -122 0 
-22 96 -87 -88 -89 -93 -94 -95 -97 -98 -99 -100 -101 -102 -103 -104 -105 -106 -107 -108 -109 -110 -111 -112 -114 -115 -116 -117 -118 -119 -120 -121 -122 0 
-23 4 52 97 -87 -88 -89 -93 -94 -95 -96 -98 -99 -100 -101 -102 -103 -104 -105 -106 -107 -108 -109 -110 -111 -112 -114 -115 -116 -117 -118 -119 -120 -121 -122 0 
-24 17 34 50 83 94 -87 -88 -89 -93 -95 -96 -97 -98 -99 -100 -101 -102 -103 -104 -105 -106 -107 -108 -109 -110 -111 -112 -114 -115 -116 -117 -118 -119 -120 -121 -122 0 
-1 42 84 -25 16 58 -26 20 31 36 45 -8 98 -87 -88 -89 -93 -94 -95 -96 -97 -99 -100 -101 -102 -103 -104 -105 -106 -107 -108 -109 -110 -111 -112 -114 -115 -116 -117 -118 -119 -120 -121 -122 0 
-27 5 -8 99 -87 -88 -89 -93 -94 -95 -96 -97 -98 -100 -101 -102 -103 -104 -105 -106 -107 -108 -109 -110 -111 -112 -114 -115 -116 -117 -118 -119 -120 -121 -122 0 
-28 85 -87 -88 -89 -93 -94 -95 -96 -97 -98 -99 -100 -101 -102 -103 -104 -105 -106 -107 -108 -109 -110 -111 -112 -114 -115 -116 -117 -118 -119 -120 -121 -122 0 
-29 85 -87 -88 -89 -93 -94 -95 -96 -97 -98 -99 -100 -101 -102 -103 -104 -105 -106 -107 -108 -109 -110 -111 -112 -114 -115 -116 -117 -118 -119 -120 -121 -122 0 
-30 100 -87 -88 -89 -93 -94 -95 -96 -97 -98 -99 -101 -102 -103 -104 -105 -106 -107 -108 -109 -110 -111 -112 -114 -115 -116 -117 -118 -119 -120 -121 -122 0 
-31 20 26 36 45 -32 18 21 37 46 64 66 68 101 -87 -88 -89 -93 -94 -95 -96 -97 -98 -99 -100 -102 -103 -104 -105 -106 -107 -108 -109 -110 -111 -112 -114 -115 -116 -117 -118 -119 -120 -121 -122 0 
-33 38 40 -34 17 24 50 83 102 -87 -88 -89 -93 -94 -95 -96 -97 -98 -99 -100 -101 -103 -104 -105 -106 -107 -108 -109 -110 -111 -112 -114 -115 -116 -117 -118 -119 -120 -121 -122 0 
-35 51 59 61 70 103 -87 -88 -89 -93 -94 -95 -96 -97 -98 -99 -100 -101 -102 -104 -105 -106 -107 -108 -109 -110 -111 -112 -114 -115 -116 -117 -118 -119 -120 -121 -122 0 
-36 20 26 31 45 85 -87 -88 -89 -93 -94 -95 -96 -97 -98 -99 -100 -101 -102 -103 -104 -105 -106 -107 -108 -109 -110 -111 -112 -114 -115 -116 -117 -118 -119 -120 -121 -122 0 
-37 18 21 32 46 64 66 68 -38 33 40 104 -87 -88 -89 -93 -94 -95 -96 -97 -98 -99 -100 -101 -102 -103 -105 -106 -107 -108 -109 -110 -111 -112 -114 -115 -116 -117 -118 -119 -120 -121 -122 0 
-39 85 -87 -88 -89 -93 -94 -95 -96 -97 -98 -99 -100 -101 -102 -103 -104 -105 -106 -107 -108 -109 -110 -111 -112 -114 -115 -116 -117 -118 -119 -120 -121 -122 0 
-40 33 38 105 -87 -88 -89 -93 -94 -95 -96 -97 -98 -99 -100 -101 -102 -103 -104 -106 -107 -108 -109 -110 -111 -112 -114 -115 -116 -117 -118 -119 -120 -121 -122 0 
-41 85 -87 -88 -89 -93 -94 -95 -96 -97 -98 -99 -100 -101 -102 -103 -104 -105 -106 -107 -108 -109 -110 -111 -112 -114 -115 -116 -117 -118 -119 -120 -121 -122 0 
-42 1 84 106 -87 -88 -89 -93 -94 -95 -96 -97 -98 -99 -100 -101 -102 -103 -104 -105 -107 -108 -109 -110 -111 -112 -114 -115 -116 -117 -118 -119 -120 -121 -122 0 
-43 91 -87 -88 -89 -93 -94 -95 -96 -97 -98 -99 -100 -101 -102 -103 -104 -105 -106 -107 -108 -109 -110 -111 -112 -114 -115 -116 -117 -118 -119 -120 -121 -122 0 
-44 86 -87 -88 -89 -93 -94 -95 -96 -97 -98 -99 -100 -101 -102 -103 -104 -105 -106 -107 -108 -109 -110 -111 -112 -114 -115 -116 -117 -118 -119 -120 -121 -122 0 
-45 20 26 31 36 -46 18 21 32 37 64 66 68 107 -87 -88 -89 -93 -94 -95 -96 -97 -98 -99 -100 -101 -102 -103 -104 -105 -106 -108 -109 -110 -111 -112 -114 -115 -116 -117 -118 -119 -120 -121 -122 0 
-47 65 -8 108 -87 -88 -89 -93 -94 -95 -96 -97 -98 -99 -100 -101 -102 -103 -104 -105 -106 -107 -109 -110 -111 -112 -114 -115 -116 -117 -118 -119 -120 -121 -122 0 
-48 85 -87 -88 -89 -93 -94 -95 -96 -97 -98 -99 -100 -101 -102 -103 -104 -105 -106 -107 -108 -109 -110 -111 -112 -114 -115 -116 -117 -118 -119 -120 -121 -122 0 
-49 85 -87 -88 -89 -93 -94 -95 -96 -97 -98 -99 -100 -101 -102 -103 -104 -105 -106 -107 -108 -109 -110 -111 -112 -114 -115 -116 -117 -118 -119 -120 -121 -122 0 
-50 17 24 34 83 109 -87 -88 -89 -93 -94 -95 -96 -97 -98 -99 -100 -101 -102 -103 -104 -105 -106 -107 -108 -110 -111 -112 -114 -115 -116 -117 -118 -119 -120 -121 -122 0 
-51 35 59 61 70 110 -87 -88 -89 -93 -94 -95 -96 -97 -98 -99 -100 -101 -102 -103 -104 -105 -106 -107 -108 -109 -111 -112 -114 -115 -116 -117 -118 -119 -120 -121 -122 0 
-52 4 23 111 -87 -88 -89 -93 -94 -95 -96 -97 -98 -99 -100 -101 -102 -103 -104 -105 -106 -107 -108 -109 -110 -112 -114 -115 -116 -117 -118 -119 -120 -121 -122 0 
-31 20 26 36 45 -53 56 -8 112 -87 -88 -89 -93 -94 -95 -96 -97 -98 -99 -100 -101 -102 -103 -104 -105 -106 -107 -108 -109 -110 -111 -114 -115 -116 -117 -118 -119 -120 -121 -122 0 
-8 113 -90 0 
-8 -54 -55 114 -87 -88 -89 -93 -94 -95 -96 -97 -98 -99 -100 -101 -102 -103 -104 -105 -106 -107 -108 -109 -110 -111 -112 -115 -116 -117 -118 -119 -120 -121 -122 0 
-56 53 -57 94 -87 -88 -89 -93 -95 -96 -97 -98 -99 -100 -101 -102 -103 -104 -105 -106 -107 -108 -109 -110 -111 -112 -114 -115 -116 -117 -118 -119 -120 -121 -122 0 
-58 16 25 -57 94 -87 -88 -89 -93 -95 -96 -97 -98 -99 -100 -101 -102 -103 -104 -105 -106 -107 -108 -109 -110 -111 -112 -114 -115 -116 -117 -118 -119 -120 -121 -122 0 
-59 35 51 61 70 -57 94 -87 -88 -89 -93 -95 -96 -97 -98 -99 -100 -101 -102 -103 -104 -105 -106 -107 -108 -109 -110 -111 -112 -114 -115 -116 -117 -118 -119 -120 -121 -122 0 
-57 115 -87 -88 -89 -93 -94 -95 -96 -97 -98 -99 -100 -101 -102 -103 -104 -105 -106 -107 -108 -109 -110 -111 -112 -114 -116 -117 -118 -119 -120 -121 -122 0 
-60 85 -87 -88 -89 -93 -94 -95 -96 -97 -98 -99 -100 -101 -102 -103 -104 -105 -106 -107 -108 -109 -110 -111 -112 -114 -115 -116 -117 -118 -119 -120 -121 -122 0 
-61 35 51 59 70 -8 106 -87 -88 -89 -93 -94 -95 -96 -97 -98 -99 -100 -101 -102 -103 -104 -105 -107 -108 -109 -110 -111 -112 -114 -115 -116 -117 -118 -119 -120 -121 -122 0 
-62 85 -87 -88 -89 -93 -94 -95 -96 -97 -98 -99 -100 -101 -102 -103 -104 -105 -106 -107 -108 -109 -110 -111 -112 -114 -115 -116 -117 -118 -119 -120 -121 -122 0 
-63 14 79 81 82 85 -87 -88 -89 -93 -94 -95 -96 -97 -98 -99 -100 -101 -102 -103 -104 -105 -106 -107 -108 -109 -110 -111 -112 -114 -115 -116 -117 -118 -119 -120 -121 -122 0 
-61 35 51 59 70 106 -87 -88 -89 -93 -94 -95 -96 -97 -98 -99 -100 -101 -102 -103 -104 -105 -107 -108 -109 -110 -111 -112 -114 -115 -116 -117 -118 -119 -120 -121 -122 0 
-64 18 21 32 37 46 66 68 -31 20 26 36 45 105 -87 -88 -89 -93 -94 -95 -96 -97 -98 -99 -100 -101 -102 -103 -104 -106 -107 -108 -109 -110 -111 -112 -114 -115 -116 -117 -118 -119 -120 -121 -122 0 
-31 20 26 36 45 -65 47 -8 116 -87 -88 -89 -93 -94 -95 -96 -97 -98 -99 -100 -101 -102 -103 -104 -105 -106 -107 -108 -109 -110 -111 -112 -114 -115 -117 -118 -119 -120 -121 -122 0 
-26 20 31 36 45 -66 18 21 32 37 46 64 68 117 -87 -88 -89 -93 -94 -95 -96 -97 -98 -99 -100 -101 -102 -103 -104 -105 -106 -107 -108 -109 -110 -111 -112 -114 -115 -116 -118 -119 -120 -121 -122 0 
-67 85 -87 -88 -89 -93 -94 -95 -96 -97 -98 -99 -100 -101 -102 -103 -104 -105 -106 -107 -108 -109 -110 -111 -112 -114 -115 -116 -117 -118 -119 -120 -121 -122 0 
-68 18 21 32 37 46 64 66 115 -87 -88 -89 -93 -94 -95 -96 -97 -98 -99 -100 -101 -102 -103 -104 -105 -106 -107 -108 -109 -110 -111 -112 -114 -116 -117 -118 -119 -120 -121 -122 0 
-69 73 75 85 -87 -88 -89 -93 -94 -95 -96 -97 -98 -99 -100 -101 -102 -103 -104 -105 -106 -107 -108 -109 -110 -111 -112 -114 -115 -116 -117 -118 -119 -120 -121 -122 0 
-70 35 51 59 61 -8 118 -87 -88 -89 -93 -94 -95 -96 -97 -98 -99 -100 -101 -102 -103 -104 -105 -106 -107 -108 -109 -110 -111 -112 -114 -115 -116 -117 -119 -120 -121 -122 0 
-71 -8 -72 119 -87 -88 -89 -93 -94 -95 -96 -97 -98 -99 -100 -101 -102 -103 -104 -105 -106 -107 -108 -109 -110 -111 -112 -114 -115 -116 -117 -118 -120 -121 -122 0 
-71 -8 -72 120 -87 -88 -89 -93 -94 -95 -96 -97 -98 -99 -100 -101 -102 -103 -104 -105 -106 -107 -108 -109 -110 -111 -112 -114 -115 -116 -117 -118 -119 -121 -122 0 
-73 69 75 121 -87 -88 -89 -93 -94 -95 -96 -97 -98 -99 -100 -101 -102 -103 -104 -105 -106 -107 -108 -109 -110 -111 -112 -114 -115 -116 -117 -118 -119 -120 -122 0 
-74 11 -57 94 -87 -88 -89 -93 -95 -96 -97 -98 -99 -100 -101 -102 -103 -104 -105 -106 -107 -108 -109 -110 -111 -112 -114 -115 -116 -117 -118 -119 -120 -121 -122 0 
-75 69 73 94 -87 -88 -89 -93 -95 -96 -97 -98 -99 -100 -101 -102 -103 -104 -105 -106 -107 -108 -109 -110 -111 -112 -114 -115 -116 -117 -118 -119 -120 -121 -122 0 
-76 122 -87 -88 -89 -93 -94 -95 -96 -97 -98 -99 -100 -101 -102 -103 -104 -105 -106 -107 -108 -109 -110 -111 -112 -114 -115 -116 -117 -118 -119 -120 -121 0 
-77 -78 10 80 85 -87 -88 -89 -93 -94 -95 -96 -97 -98 -99 -100 -101 -102 -103 -104 -105 -106 -107 -108 -109 -110 -111 -112 -114 -115 -116 -117 -118 -119 -120 -121 -122 0 
-79 14 63 81 82 -80 10 78 85 -87 -88 -89 -93 -94 -95 -96 -97 -98 -99 -100 -101 -102 -103 -104 -105 -106 -107 -108 -109 -110 -111 -112 -114 -115 -116 -117 -118 -119 -120 -121 -122 0 
-81 14 63 79 82 -80 10 78 85 -87 -88 -89 -93 -94 -95 -96 -97 -98 -99 -100 -101 -102 -103 -104 -105 -106 -107 -108 -109 -110 -111 -112 -114 -115 -116 -117 -118 -119 -120 -121 -122 0 
-77 -81 14 63 79 82 85 -87 -88 -89 -93 -94 -95 -96 -97 -98 -99 -100 -101 -102 -103 -104 -105 -106 -107 -108 -109 -110 -111 -112 -114 -115 -116 -117 -118 -119 -120 -121 -122 0 
-1 42 84 -79 14 63 81 82 85 -87 -88 -89 -93 -94 -95 -96 -97 -98 -99 -100 -101 -102 -103 -104 -105 -106 -107 -108 -109 -110 -111 -112 -114 -115 -116 -117 -118 -119 -120 -121 -122 0 
-39 -81 14 63 79 82 85 -87 -88 -89 -93 -94 -95 -96 -97 -98 -99 -100 -101 -102 -103 -104 -105 -106 -107 -108 -109 -110 -111 -112 -114 -115 -116 -117 -118 -119 -120 -121 -122 0 
-82 14 63 79 81 -83 17 24 34 50 85 -87 -88 -89 -93 -94 -95 -96 -97 -98 -99 -100 -101 -102 -103 -104 -105 -106 -107 -108 -109 -110 -111 -112 -114 -115 -116 -117 -118 -119 -120 -121 -122 0 
-1 42 84 85 -87 -88 -89 -93 -94 -95 -96 -97 -98 -99 -100 -101 -102 -103 -104 -105 -106 -107 -108 -109 -110 -111 -112 -114 -115 -116 -117 -118 -119 -120 -121 -122 0 
-77 85 -87 -88 -89 -93 -94 -95 -96 -97 -98 -99 -100 -101 -102 -103 -104 -105 -106 -107 -108 -109 -110 -111 -112 -114 -115 -116 -117 -118 -119 -120 -121 -122 0 
-84 1 42 85 -87 -88 -89 -93 -94 -95 -96 -97 -98 -99 -100 -101 -102 -103 -104 -105 -106 -107 -108 -109 -110 -111 -112 -114 -115 -116 -117 -118 -119 -120 -121 -122 0 
-82 14 63 79 81 85 -87 -88 -89 -93 -94 -95 -96 -97 -98 -99 -100 -101 -102 -103 -104 -105 -106 -107 -108 -109 -110 -111 -112 -114 -115 -116 -117 -118 -119 -120 -121 -122 0 
